(set-option :produce-models true)
(set-logic QF_UF)
(declare-fun p15() Bool)
(declare-fun p29() Bool)
(declare-fun p10() Bool)
(declare-fun p24() Bool)
(declare-fun p6() Bool)
(declare-fun p0() Bool)
(declare-fun p27() Bool)
(declare-fun p4() Bool)
(declare-fun p13() Bool)
(declare-fun p18() Bool)
(declare-fun p3() Bool)
(declare-fun p14() Bool)
(declare-fun p17() Bool)
(declare-fun p23() Bool)
(declare-fun p22() Bool)
(declare-fun p12() Bool)
(declare-fun p9() Bool)
(declare-fun p2() Bool)
(declare-fun p25() Bool)
(declare-fun p1() Bool)
(declare-fun p21() Bool)
(declare-fun p16() Bool)
(declare-fun p28() Bool)
(declare-fun p8() Bool)
(declare-fun p26() Bool)
(declare-fun p7() Bool)
(declare-fun p20() Bool)
(declare-fun p5() Bool)
(declare-fun p11() Bool)
(declare-fun p19() Bool)
(assert
(and (or (not p15) p15 (not p29)) (or p10 p24 (not p6)) (or (not p0) (not p10) p27) (or (not p4) (not p27) (not p13)) (or (not p10) p18 p3) (or p14 p17 (not p23)) (or (not p27) p22 p12) (or (not p3) p9 p10) (or (not p2) p9 p9) (or p6 p9 (not p25)) (or (not p25) p1 (not p21)) (or (not p15) (not p14) p24) (or (not p4) (not p0) p13) (or (not p6) (not p9) (not p13)) (or p21 p16 (not p14)) (or p13 (not p28) p8) (or p3 (not p2) p12) (or p26 (not p7) p20) (or p12 (not p25) p23) (or (not p14) p3 (not p17)) (or p8 p3 (not p10)) (or p6 p18 (not p24)) (or (not p26) p20 (not p4)) (or p4 (not p12) p26) (or p17 (not p14) (not p5)) (or (not p14) p24 p15) (or (not p23) (not p10) (not p21)) (or (not p28) p15 (not p24)) (or p7 (not p23) p26) (or p27 p4 p7) (or p8 (not p14) p9) (or p16 p23 (not p24)) (or (not p5) (not p12) (not p21)) (or p9 (not p28) (not p11)) (or (not p19) (not p24) p27) (or p18 p20 p8) (or (not p4) p3 (not p8)) (or (not p18) (not p6) p23) (or (not p14) p14 (not p13)) (or p16 p10 p15) (or (not p3) p25 (not p22)) (or (not p25) p8 (not p27)) (or (not p12) p22 p17) (or (not p26) p16 p9) (or p2 (not p28) (not p23)) (or (not p25) p11 p29) (or p21 (not p9) (not p1)) (or p28 (not p9) p4) (or (not p25) (not p27) (not p11)) (or p13 (not p26) (not p26)) (or p29 p5 p27) (or (not p14) p26 p1) (or (not p25) (not p4) (not p5)) (or p18 p8 p8) (or p10 p6 p28) (or (not p25) p12 p27) (or p0 (not p18) (not p10)) (or p14 p25 (not p23)) (or (not p13) p1 p13) (or p17 (not p9) (not p18)) (or p13 p19 (not p28)) (or (not p17) (not p18) (not p9)) (or (not p21) p18 (not p23)) (or (not p6) p1 p19) (or (not p12) p20 (not p12)) (or p4 (not p18) (not p1)) (or (not p3) p20 p6) (or (not p26) p2 p21) (or p21 p23 (not p1)) (or (not p25) (not p9) (not p5)) (or p7 p5 p4) (or (not p3) p4 (not p17)) (or p29 (not p11) (not p15)) (or p16 (not p6) p12) (or (not p8) p23 (not p22)) (or (not p24) (not p13) p8) (or (not p17) p5 (not p1)) (or (not p14) (not p19) p24) (or (not p24) (not p27) p2) (or (not p23) p13 (not p25)) (or (not p23) (not p8) (not p13)) (or (not p19) p6 p4) (or (not p19) (not p2) (not p2)) (or p27 p15 (not p16)) (or (not p6) p19 (not p9)) (or (not p25) (not p11) (not p2)) (or p7 (not p3) (not p6)) (or p9 p29 p6) (or p11 p0 p19) (or (not p22) (not p14) p18) (or p18 p1 p3) (or p21 p22 p6) (or (not p4) p5 p9) (or (not p27) p19 p3) (or p11 p21 p21) (or p24 (not p3) (not p13)) (or (not p24) p28 (not p18)) (or p7 p29 (not p12)) (or p24 (not p16) (not p29)) (or (not p14) (not p4) (not p24)) (or p24 p24 (not p17)) (or p15 p11 (not p3)) (or (not p25) (not p28) p28) (or (not p3) (not p14) (not p6)) (or (not p22) p18 p21) (or (not p6) (not p12) (not p20)) (or p17 (not p17) (not p13)) (or (not p6) p27 p0) (or p1 p9 (not p27)) (or (not p26) p1 p0) (or (not p29) (not p22) p20) (or p4 (not p27) p22) (or p12 p10 (not p10)) (or (not p7) (not p10) p15) (or p16 p10 (not p29)) (or p6 p13 (not p20)) (or p19 p25 p21) (or p25 (not p21) p3) (or (not p7) p7 p10) (or p6 p6 (not p3)) (or (not p14) p4 p14) (or p21 (not p18) p12) (or p19 p4 p10) (or (not p13) (not p27) p0) (or p4 p11 (not p1)) (or (not p6) p18 p28) (or (not p21) p13 p18) (or (not p27) (not p29) p0))
)
(check-sat)
(get-model)
